(set-info :smt-lib-version 2.6)
(set-logic QF_UFLRA)
(set-info :source |
MathSat group

|)
(set-info :category "random")
(set-info :status sat)
(declare-fun x0 () Real)
(declare-fun x1 () Real)
(declare-fun x2 () Real)
(declare-fun x3 () Real)
(declare-fun x4 () Real)
(declare-fun x5 () Real)
(declare-fun x6 () Real)
(declare-fun x7 () Real)
(declare-fun x8 () Real)
(declare-fun x9 () Real)
(declare-fun x10 () Real)
(declare-fun x11 () Real)
(declare-fun x12 () Real)
(declare-fun x13 () Real)
(declare-fun x14 () Real)
(declare-fun x15 () Real)
(declare-fun x16 () Real)
(declare-fun x17 () Real)
(declare-fun x18 () Real)
(declare-fun x19 () Real)
(declare-fun x20 () Real)
(declare-fun x21 () Real)
(declare-fun x22 () Real)
(declare-fun x23 () Real)
(declare-fun x24 () Real)
(declare-fun x25 () Real)
(declare-fun x26 () Real)
(declare-fun x27 () Real)
(declare-fun x28 () Real)
(declare-fun x29 () Real)
(declare-fun x30 () Real)
(declare-fun x31 () Real)
(declare-fun x32 () Real)
(declare-fun x33 () Real)
(declare-fun x34 () Real)
(declare-fun x35 () Real)
(declare-fun x36 () Real)
(declare-fun x37 () Real)
(declare-fun x38 () Real)
(declare-fun x39 () Real)
(declare-fun f0_1 (Real) Real)
(declare-fun f0_2 (Real Real) Real)
(declare-fun f0_3 (Real Real Real) Real)
(declare-fun f0_4 (Real Real Real Real) Real)
(declare-fun P0 () Bool)
(declare-fun P1 () Bool)
(declare-fun P2 () Bool)
(declare-fun P3 () Bool)
(declare-fun P4 () Bool)
(declare-fun P5 () Bool)
(declare-fun P6 () Bool)
(declare-fun P7 () Bool)
(declare-fun P8 () Bool)
(declare-fun P9 () Bool)
(declare-fun P10 () Bool)
(declare-fun P11 () Bool)
(declare-fun P12 () Bool)
(declare-fun P13 () Bool)
(declare-fun P14 () Bool)
(declare-fun P15 () Bool)
(declare-fun P16 () Bool)
(declare-fun P17 () Bool)
(declare-fun P18 () Bool)
(declare-fun P19 () Bool)
(declare-fun P20 () Bool)
(declare-fun P21 () Bool)
(declare-fun P22 () Bool)
(declare-fun P23 () Bool)
(declare-fun P24 () Bool)
(declare-fun P25 () Bool)
(declare-fun P26 () Bool)
(declare-fun P27 () Bool)
(declare-fun P28 () Bool)
(declare-fun P29 () Bool)
(declare-fun P30 () Bool)
(declare-fun P31 () Bool)
(declare-fun P32 () Bool)
(declare-fun P33 () Bool)
(declare-fun P34 () Bool)
(declare-fun P35 () Bool)
(declare-fun P36 () Bool)
(declare-fun P37 () Bool)
(declare-fun P38 () Bool)
(declare-fun P39 () Bool)
(assert (let ((?v_85 (distinct (- (- (* 23 x29) (* 24 x33)) (* 21 x14)) 59)) (?v_18 (* 20 x26))) (let ((?v_2 (< (- (- (* 35 x3) ?v_18) (* 31 x31)) 46)) (?v_62 (<= (- (+ (* 39 x32) (* 24 x16)) (* 7 x36)) 12)) (?v_101 (* 41 x37)) (?v_51 (<= (- (- (* 48 x10) (* 50 x13)) (* 35 x2)) 18)) (?v_115 (< (- (- (* 9 x30) (* 15 x1)) (* 28 x11)) 34)) (?v_41 (f0_1 x13))) (let ((?v_112 (distinct x27 ?v_41)) (?v_59 (distinct (f0_2 x13 x9) (f0_1 x5))) (?v_27 (distinct (f0_1 x12) (f0_2 x34 x22))) (?v_129 (= (f0_2 x14 x22) (f0_2 x10 x36))) (?v_43 (distinct x14 (f0_2 x8 x30))) (?v_76 (f0_1 x18))) (let ((?v_11 (distinct (f0_2 x29 x19) ?v_76)) (?v_17 (distinct x9 (f0_1 x39))) (?v_140 (distinct (f0_2 x23 x10) (f0_2 x20 x6))) (?v_19 (distinct x23 (f0_2 x3 x19))) (?v_36 (= (f0_1 x22) x23)) (?v_60 (= ?v_41 x35)) (?v_90 (distinct x28 (f0_2 x0 x37))) (?v_91 (= (f0_2 x18 x24) x37)) (?v_187 (= x16 x19)) (?v_92 (= (f0_2 x6 x10) (f0_1 x23))) (?v_99 (= (f0_2 x14 x0) x39)) (?v_68 (distinct (f0_2 x4 x38) (f0_1 x0))) (?v_139 (distinct (f0_1 x6) (f0_2 x37 x36))) (?v_143 (distinct (f0_2 x9 x11) (f0_2 x30 x35))) (?v_64 (distinct (f0_2 x29 x6) x14)) (?v_6 (distinct (f0_1 x38) (f0_2 x7 x17))) (?v_12 (distinct x39 (f0_2 x33 x23))) (?v_88 (= ?v_41 x36)) (?v_44 (distinct x34 (f0_1 x3))) (?v_97 (distinct x8 (f0_2 x23 x26))) (?v_22 (= (f0_2 x37 x21) (f0_1 x30))) (?v_102 (distinct x12 x16)) (?v_5 (distinct (f0_2 x23 x15) (f0_1 x24))) (?v_61 (= (f0_2 x16 x33) ?v_41)) (?v_86 (distinct ?v_76 x10)) (?v_66 (= (f0_2 x35 x11) (f0_2 x35 x18))) (?v_4 (f0_1 x35))) (let ((?v_57 (= x32 ?v_4)) (?v_93 (distinct (f0_2 x26 x29) ?v_4)) (?v_29 (= x29 (f0_2 x10 x30))) (?v_23 (= x23 (f0_1 x27))) (?v_35 (distinct (f0_2 x22 x14) x18)) (?v_58 (= (f0_1 x15) (f0_2 x8 x15))) (?v_142 (distinct (f0_2 x29 x15) (f0_2 x4 x30))) (?v_40 (= x31 x37)) (?v_45 (= (f0_2 x36 x20) (f0_2 x34 x31))) (?v_16 (not P31)) (?v_7 (not ?v_140)) (?v_73 (not ?v_2)) (?v_24 (not P20)) (?v_1 (not P9)) (?v_83 (not P32)) (?v_125 (not ?v_5)) (?v_63 (not P30)) (?v_37 (not P14)) (?v_20 (not ?v_6)) (?v_8 (not ?v_115)) (?v_56 (not ?v_11)) (?v_159 (not P21)) (?v_167 (not P27)) (?v_80 (not ?v_22)) (?v_14 (not ?v_64)) (?v_71 (not P8)) (?v_54 (not P15)) (?v_10 (not ?v_27)) (?v_153 (not ?v_90)) (?v_134 (not ?v_187)) (?v_31 (not P1)) (?v_30 (not ?v_12))) (let ((?v_181 (not ?v_29)) (?v_15 (not ?v_85)) (?v_176 (not ?v_68)) (?v_100 (not P38)) (?v_141 (not P24)) (?v_72 (not ?v_59)) (?v_191 (not ?v_17)) (?v_162 (not P25)) (?v_48 (not ?v_61)) (?v_131 (not ?v_19)) (?v_118 (not ?v_23)) (?v_105 (not P22)) (?v_122 (not ?v_139)) (?v_38 (not P37)) (?v_133 (not ?v_36)) (?v_89 (not ?v_40)) (?v_82 (not P29)) (?v_75 (not ?v_60)) (?v_156 (not ?v_45)) (?v_177 (not ?v_51)) (?v_160 (not P6)) (?v_67 (not P12)) (?v_154 (not ?v_57)) (?v_103 (not ?v_62)) (?v_95 (not P23)) (?v_182 (not ?v_88)) (?v_111 (not ?v_142)) (?v_65 (not P18)) (?v_123 (not ?v_102)) (?v_135 (not ?v_66)) (?v_126 (not ?v_86)) (?v_96 (not ?v_58)) (?v_121 (not P28)) (?v_147 (not P19)) (?v_151 (not ?v_93)) (?v_179 (not ?v_112)) (?v_128 (not ?v_97)) (?v_116 (not ?v_99)) (?v_130 (not ?v_129)) (?v_165 (not P7)) (?v_150 (not ?v_43)) (?v_170 (not P11)) (?v_148 (not P33)) (?v_152 (not P2)) (?v_146 (not ?v_91)) (?v_197 (not P39)) (?v_189 (not P36)) (?v_174 (not P3)) (?v_192 (not P10)) (?v_161 (not P16)) (?v_172 (not P4)) (?v_166 (not P26)) (?v_171 (not P35)) (?v_185 (not P17)) (?v_198 (or P34 ?v_43)) (?v_195 (not P34)) (?v_194 (not P5)) (?v_201 (not ?v_44)) (?v_78 (= (+ (- x30 (* 3 x25)) (* 14 x1)) 50))) (let ((?v_163 (not ?v_78)) (?v_127 (< (+ (* 11 x5) (* 56 x15) (* 7 x30)) 13))) (let ((?v_77 (not ?v_127)) (?v_26 (< (- (+ (* 37 x13) (* 18 x14)) (* 8 x35)) (- 51))) (?v_3 (< (+ (- (* 54 x0) (* 5 x19)) (* 12 x20)) (- 39))) (?v_0 (= (- (- (* 16 x9) x39) (* 42 x1)) (- 44))) (?v_21 (<= (- (+ (* (- 22) x27) (* 4 x6)) 0) 19)) (?v_52 (< (+ (- (* (- 4) x29) (* 29 x4)) (* 39 x30)) 29))) (let ((?v_98 (not ?v_52)) (?v_47 (< (- (- (* (- 13) x21) (* 28 x36)) x23) 20)) (?v_34 (<= (+ (- (* (- 1) x9) (* 23 x14)) (* 5 x24)) (- 36))) (?v_164 (not ?v_0)) (?v_28 (distinct (- (+ (* (- 35) x10) (* 46 x36)) x37) 45))) (let ((?v_184 (not ?v_28)) (?v_94 (<= (- (+ (* (- 10) x22) (* 13 x16)) (* 30 x34)) (- 53)))) (let ((?v_119 (not ?v_94)) (?v_9 (distinct (- (- (* 33 x37) (* 15 x13)) (* 10 x28)) (- 19))) (?v_149 (<= (+ (* (- 46) x16) (* 38 x39) (* 51 x13)) (- 46)))) (let ((?v_120 (not ?v_149)) (?v_13 (< (+ (* 33 x27) (* 51 x30) (* 19 x14)) (- 29))) (?v_33 (< (- (+ (* (- 51) x34) (* 35 x6)) 0) (- 51))) (?v_79 (<= (- (- (* 6 x22) (* 12 x16)) (* 12 x19)) (- 26))) (?v_55 (<= (- (+ (* 26 x11) (* 30 x1)) (* 4 x17)) (- 22)))) (let ((?v_186 (not ?v_55)) (?v_39 (< (+ (- ?v_18 (* 21 x26)) (* 18 x39)) (- 35)))) (let ((?v_74 (not ?v_39)) (?v_25 (<= (+ (- (* (- 50) x29) ?v_101) (* 31 x38)) 6)) (?v_113 (not ?v_21)) (?v_49 (not ?v_9))) (let ((?v_46 (not ?v_25)) (?v_173 (not ?v_26)) (?v_87 (< (* (- 2) x37) 21))) (let ((?v_109 (not ?v_87)) (?v_32 (distinct (+ (* 16 x38) (* 51 x27) (* 36 x23)) (- 45)))) (let ((?v_158 (not ?v_32)) (?v_136 (not ?v_33)) (?v_144 (distinct (+ (* (- 44) x11) (* 42 x39) (* 45 x20)) 5))) (let ((?v_42 (not ?v_144)) (?v_50 (= (- (- (* (- 27) x35) (* 9 x13)) 0) 45))) (let ((?v_53 (not ?v_50)) (?v_70 (<= (- (- (* (- 26) x16) (* 14 x29)) (* 46 x25)) 5)) (?v_69 (<= (- (- (* (- 4) x6) (* 26 x24)) (* 29 x30)) 37)) (?v_84 (= (- (* 23 x33) (* 9 x31)) (- 48)))) (let ((?v_110 (not ?v_84)) (?v_114 (not ?v_69)) (?v_104 (not ?v_34)) (?v_178 (not ?v_70)) (?v_107 (<= (- (+ (* (- 47) x11) (* 15 x22)) (* 13 x29)) 44))) (let ((?v_157 (not ?v_107)) (?v_81 (<= (- (+ (* (- 25) x3) (* 36 x3)) (* 46 x30)) 42))) (let ((?v_137 (not ?v_81)) (?v_138 (<= (+ (* (- 1) x15) (* 12 x8) (* 54 x33)) (- 22)))) (let ((?v_117 (not ?v_138)) (?v_108 (distinct (- (+ (* (- 49) x20) (* 27 x28)) (* 34 x22)) (- 28))) (?v_132 (* (- 13) x35))) (let ((?v_124 (<= (+ (- ?v_132 ?v_101) (* 34 x7)) (- 44)))) (let ((?v_106 (not ?v_124)) (?v_188 (not ?v_3)) (?v_145 (< (- (- (* (- 42) x10) (* 27 x13)) (* 50 x1)) 29)) (?v_200 (<= (+ (- ?v_132 0) (* 9 x16)) (- 59)))) (let ((?v_196 (not ?v_200)) (?v_183 (not ?v_79)) (?v_155 (<= (- (+ (* (- 12) x13) (* 30 x24)) (* 57 x21)) 23)) (?v_180 (<= (+ (* (- 3) x29) (* 31 x29) (* 42 x34)) (- 36)))) (let ((?v_199 (not ?v_180)) (?v_168 (not ?v_145)) (?v_169 (not ?v_108)) (?v_175 (not ?v_13)) (?v_190 (not ?v_155)) (?v_193 (not ?v_47))) (and (and (and (and (and (and (and (and (and (and (and (and (and (and (and (and (and (and (and (and (and (and (and (and (and (and (and (and (and (and (and (and (and (and (and (and (and (and (and (and (and (and (and (and (and (and (and (and (and (and (and (and (and (and (and (and (and (and (and (and (and (and (and (and (and (and (and (and (and (and (and (and (and (and (and (and (and (and (and (and (and (and (and (and (and (and (and (and (and (and (and (and (and (and (and (and (and (and (and (and (and (and (and (and (and (and (and (and (and (and (and (and (and (and (and (and (and (and (and (and (and (and (and (and (and (and (and (and (and (and (and (and (and (and (and (and (and (and (and (and (and (and (and (and (and (and (and (and (and (and (and (and (and (and (and (and (and (and (and (and (and (and (and (and (and (and (and (and (and (and (and (and (and (and (and (and (and (and (and (and (and (and (and (and (and (and (and (and (and (and (and (and (and (and (and (and (and (and (and (and (and (and (and (and (and (and (and (and (and (and (and (and (and (and (and (and (and (and (and (and (and (and (and (and (and (and (and (and (and (and (and (and (and (and (and (and (and (and (and (and (and (and (and (and (and (and (and (and (and (and (and (and (and (and (and (and (and (and (and (and (and (and (and (and (and (and (and (and (and (and (and (and (and (and (and (and (and (and (and (and (and (and (and (and (and (and (and (and (and (and (and (and (and (and (and (and (and (and (and (and (and (and (and (and (and (and (and (and (and (and (and (and (and (and (and (and (and (and (and (and (and (and (and (and (and (and (and (and (and (and (and (and (and (and (and (and (and (and (and (and (and (and (and (and (and (and (and (and (and (and (and (and (and (and (and (and (and (and (and (and (and (and (and (and (and (and (and (and (and (and (and (and (and (and (and (and (and (and (and (and (and (and (and (and (and (and (and (and (and (and (and (and (and (and (and (and (and (and (and (and (and (and (and (and (and (and (and (and (and (and (and (and (and (and (and (and (and (and (and (and (and (and (and (and (and (and (and (and (and (and (and (and (and (and (and (and (and (and (and (and (and (and (and (and (and (and (and (and (and (and (and (and (and (and (and (and (and (and (and (and (and (and (and (and (and (and (and (and (and (and (and (and (and (and (and (and (and (and (and (or (or ?v_93 P2) ?v_19) (or (or ?v_26 P16) ?v_16)) (or (or ?v_7 ?v_73) ?v_5)) (or (or ?v_3 ?v_23) ?v_24)) (or (or ?v_44 ?v_58) ?v_1)) (or (or ?v_51 ?v_0) P35)) (or (or ?v_0 ?v_6) ?v_21)) (or (or ?v_1 ?v_2) P30)) (or (or ?v_98 ?v_47) ?v_3)) (or (or P12 ?v_57) ?v_83)) (or (or ?v_125 ?v_34) ?v_63)) (or (or ?v_37 ?v_43) ?v_20)) (or (or ?v_7 ?v_8) P33)) (or (or ?v_56 ?v_159) ?v_167)) (or (or ?v_80 P34) P19)) (or (or P25 ?v_14) ?v_71)) (or (or ?v_92 P39) ?v_164)) (or (or ?v_184 P23) ?v_54)) (or (or P25 ?v_12) P17)) (or (or ?v_5 ?v_1) ?v_119)) (or (or ?v_10 ?v_9) P12)) (or (or ?v_153 ?v_8) ?v_36)) (or (or ?v_45 ?v_120) ?v_9)) (or (or ?v_13 ?v_10) ?v_134)) (or (or ?v_31 P27) ?v_33)) (or (or ?v_11 ?v_30) ?v_181)) (or (or ?v_13 ?v_79) P18)) (or (or P35 ?v_15) P2)) (or (or ?v_17 ?v_40) P11)) (or (or ?v_14 ?v_15) ?v_16)) (or (or ?v_176 ?v_100) ?v_66)) (or (or ?v_141 ?v_186) P16)) (or (or ?v_17 ?v_74) P25)) (or (or ?v_72 ?v_19) ?v_25)) (or (or P32 ?v_191) ?v_20)) (or (or ?v_113 ?v_49) P29)) (or (or ?v_14 ?v_35) ?v_22)) (or (or ?v_162 ?v_163) ?v_48)) (or (or ?v_131 ?v_118) ?v_105)) (or (or ?v_24 ?v_2) ?v_46)) (or (or ?v_173 ?v_27) ?v_109)) (or (or P4 ?v_28) P28)) (or (or P27 ?v_29) P24)) (or (or P38 P8) P4)) (or (or ?v_99 ?v_20) ?v_32)) (or (or ?v_77 P18) P27)) (or (or ?v_10 ?v_16) ?v_30)) (or (or ?v_31 ?v_158) ?v_122)) (or (or P31 ?v_136) ?v_42)) (or (or ?v_2 ?v_34) ?v_35)) (or (or P26 ?v_38) ?v_133)) (or (or P23 ?v_37) ?v_27)) (or (or ?v_38 ?v_39) ?v_89)) (or (or ?v_82 ?v_75) ?v_42)) (or (or ?v_53 ?v_43) P36)) (or (or ?v_44 ?v_38) ?v_156)) (or (or ?v_36 ?v_46) ?v_15)) (or (or ?v_47 ?v_48) P13)) (or (or ?v_49 ?v_50) ?v_177)) (or (or P39 P7) P3)) (or (or ?v_160 ?v_52) ?v_70)) (or (or ?v_53 ?v_22) ?v_54)) (or (or ?v_55 ?v_67) ?v_69)) (or (or ?v_56 ?v_154) P1)) (or (or ?v_58 ?v_33) P25)) (or (or ?v_103 ?v_59) ?v_24)) (or (or ?v_95 ?v_45) P28)) (or (or ?v_49 ?v_110) ?v_112)) (or (or ?v_182 ?v_37) P22)) (or (or P9 ?v_60) ?v_61)) (or (or ?v_129 ?v_62) ?v_63)) (or (or ?v_111 ?v_44) ?v_64)) (or (or ?v_15 ?v_65) P14)) (or (or ?v_123 P15) ?v_11)) (or (or P10 ?v_65) P9)) (or (or ?v_45 ?v_3) ?v_32)) (or (or P32 ?v_52) ?v_135)) (or (or ?v_67 ?v_12) ?v_68)) (or (or ?v_114 ?v_34) ?v_70)) (or (or ?v_28 ?v_71) P16)) (or (or ?v_72 ?v_97) ?v_48)) (or (or ?v_54 ?v_104) ?v_73)) (or (or ?v_66 ?v_40) ?v_74)) (or (or ?v_75 P4) ?v_178)) (or (or ?v_157 ?v_86) ?v_91)) (or (or ?v_77 P19) ?v_31)) (or (or (not P13) ?v_78) ?v_29)) (or (or ?v_81 ?v_61) ?v_79)) (or (or P8 P20) ?v_80)) (or (or P34 ?v_137) ?v_82)) (or (or ?v_5 P37) ?v_81)) (or (or ?v_28 ?v_83) ?v_84)) (or (or ?v_28 ?v_10) ?v_85)) (or (or ?v_33 ?v_126) ?v_87)) (or (or P38 ?v_88) P28)) (or (or P0 ?v_31) ?v_86)) (or (or ?v_117 ?v_89) P36)) (or (or ?v_108 ?v_90) ?v_91)) (or (or ?v_70 ?v_92) ?v_93)) (or (or ?v_94 ?v_96) P24)) (or (or ?v_95 ?v_79) ?v_96)) (or (or ?v_69 ?v_97) ?v_89)) (or (or ?v_49 P16) ?v_78)) (or (or ?v_50 ?v_8) ?v_121)) (or (or ?v_64 ?v_98) ?v_9)) (or (or ?v_81 P4) ?v_49)) (or (or ?v_97 ?v_30) P24)) (or (or ?v_99 ?v_97) ?v_100)) (or (or ?v_11 ?v_106) ?v_102)) (or (or ?v_19 ?v_103) ?v_32)) (or (or ?v_89 ?v_104) P14)) (or (or ?v_147 ?v_69) ?v_44)) (or (or ?v_54 ?v_105) ?v_52)) (or (or ?v_97 ?v_106) ?v_107)) (or (or ?v_30 ?v_37) P9)) (or (or ?v_108 ?v_2) ?v_109)) (or (or ?v_97 ?v_77) P4)) (or (or ?v_58 ?v_110) ?v_6)) (or (or ?v_59 ?v_111) P30)) (or (or ?v_99 ?v_59) ?v_151)) (or (or ?v_67 ?v_179) ?v_113)) (or (or P39 P3) ?v_114)) (or (or ?v_128 ?v_116) ?v_2)) (or (or ?v_87 ?v_49) ?v_115)) (or (or ?v_116 ?v_29) ?v_66)) (or (or P12 ?v_117) ?v_48)) (or (or ?v_103 P37) ?v_118)) (or (or ?v_119 ?v_120) ?v_1)) (or (or ?v_43 ?v_63) ?v_121)) (or (or ?v_97 ?v_43) P39)) (or (or P0 ?v_122) ?v_80)) (or (or ?v_188 P35) ?v_64)) (or (or ?v_46 ?v_83) ?v_15)) (or (or ?v_96 ?v_123) ?v_62)) (or (or ?v_5 ?v_26) ?v_124)) (or (or ?v_125 ?v_126) ?v_127)) (or (or ?v_128 P26) ?v_103)) (or (or ?v_130 P5) ?v_143)) (or (or ?v_42 ?v_130) ?v_165)) (or (or ?v_72 P27) ?v_98)) (or (or ?v_59 ?v_68) ?v_29)) (or (or ?v_145 ?v_131) ?v_150)) (or (or ?v_98 ?v_121) ?v_130)) (or (or ?v_27 ?v_45) ?v_109)) (or (or ?v_196 ?v_22) ?v_53)) (or (or ?v_45 ?v_26) ?v_21)) (or (or ?v_77 ?v_133) ?v_170)) (or (or ?v_70 ?v_23) ?v_81)) (or (or ?v_84 ?v_10) ?v_28)) (or (or ?v_90 ?v_114) ?v_183)) (or (or P16 P14) ?v_29)) (or (or ?v_93 ?v_134) ?v_72)) (or (or ?v_12 ?v_83) ?v_135)) (or (or ?v_114 ?v_121) P21)) (or (or ?v_30 ?v_136) P20)) (or (or P39 P37) ?v_8)) (or (or ?v_129 ?v_102) ?v_137)) (or (or ?v_136 P19) ?v_89)) (or (or ?v_68 ?v_54) ?v_95)) (or (or ?v_137 ?v_81) ?v_148)) (or (or ?v_25 ?v_108) P15)) (or (or ?v_82 P14) ?v_70)) (or (or ?v_80 ?v_9) ?v_88)) (or (or ?v_155 P27) ?v_138)) (or (or P30 ?v_73) P21)) (or (or ?v_82 ?v_87) ?v_139)) (or (or ?v_65 ?v_140) ?v_152)) (or (or ?v_69 ?v_25) ?v_139)) (or (or ?v_24 P9) ?v_8)) (or (or P33 P22) P4)) (or (or ?v_9 ?v_53) ?v_21)) (or (or ?v_113 ?v_141) ?v_83)) (or (or ?v_146 ?v_96) ?v_126)) (or (or ?v_90 ?v_142) ?v_79)) (or (or P19 ?v_97) P31)) (or (or ?v_117 ?v_34) ?v_33)) (or (or ?v_5 ?v_81) ?v_143)) (or (or P1 ?v_144) ?v_78)) (or (or P19 ?v_24) ?v_75)) (or (or ?v_145 ?v_146) ?v_197)) (or (or ?v_189 ?v_23) ?v_55)) (or (or P29 ?v_174) P27)) (or (or ?v_21 ?v_34) ?v_58)) (or (or (not ?v_143) P39) ?v_81)) (or (or ?v_50 P21) P29)) (or (or ?v_114 ?v_42) ?v_74)) (or (or P8 ?v_145) ?v_147)) (or (or ?v_11 ?v_93) ?v_100)) (or (or ?v_148 ?v_63) ?v_192)) (or (or ?v_127 P13) ?v_149)) (or (or ?v_70 ?v_146) ?v_150)) (or (or ?v_73 ?v_99) ?v_129)) (or (or ?v_72 ?v_11) P28)) (or (or P7 ?v_124) ?v_151)) (or (or ?v_103 ?v_199) ?v_83)) (or (or P15 ?v_168) ?v_73)) (or (or P5 ?v_169) ?v_62)) (or (or ?v_74 ?v_34) ?v_148)) (or (or P11 ?v_47) ?v_1)) (or (or P30 ?v_35) P19)) (or (or P34 P19) ?v_111)) (or (or P21 ?v_28) P3)) (or (or ?v_138 P19) ?v_91)) (or (or ?v_88 ?v_122) ?v_75)) (or (or ?v_17 ?v_124) P1)) (or (or P37 ?v_105) ?v_109)) (or (or ?v_135 P8) ?v_152)) (or (or ?v_141 ?v_27) ?v_153)) (or (or P15 ?v_1) ?v_53)) (or (or ?v_75 ?v_154) ?v_35)) (or (or ?v_50 ?v_123) ?v_58)) (or (or ?v_42 ?v_92) ?v_121)) (or (or ?v_138 P9) ?v_144)) (or (or ?v_130 ?v_107) ?v_123)) (or (or ?v_103 ?v_155) ?v_156)) (or (or P26 ?v_151) ?v_157)) (or (or ?v_67 ?v_6) ?v_158)) (or (or P11 ?v_156) P17)) (or (or ?v_82 ?v_120) ?v_159)) (or (or ?v_74 P26) ?v_160)) (or (or ?v_33 ?v_130) ?v_68)) (or (or ?v_145 ?v_175) ?v_74)) (or (or ?v_9 ?v_3) ?v_100)) (or (or ?v_68 ?v_26) ?v_153)) (or (or ?v_146 P27) ?v_119)) (or (or ?v_57 P15) ?v_125)) (or (or ?v_146 ?v_105) ?v_67)) (or (or ?v_86 ?v_161) ?v_43)) (or (or ?v_172 P36) ?v_43)) (or (or ?v_161 ?v_32) ?v_114)) (or (or ?v_89 ?v_30) ?v_166)) (or (or ?v_171 ?v_82) ?v_153)) (or (or ?v_148 ?v_149) ?v_162)) (or (or ?v_163 ?v_164) ?v_165)) (or (or ?v_166 ?v_121) ?v_33)) (or (or ?v_167 ?v_100) ?v_64)) (or (or ?v_3 ?v_65) ?v_166)) (or (or ?v_75 ?v_74) ?v_29)) (or (or ?v_168 ?v_143) ?v_16)) (or (or ?v_73 P15) ?v_169)) (or (or ?v_170 ?v_167) ?v_100)) (or (or P12 ?v_121) ?v_171)) (or (or ?v_129 P27) ?v_172)) (or (or P6 ?v_95) P35)) (or (or ?v_156 ?v_92) ?v_122)) (or (or P0 ?v_121) ?v_37)) (or (or ?v_173 ?v_63) ?v_77)) (or (or ?v_100 ?v_58) ?v_72)) (or (or ?v_65 ?v_174) ?v_114)) (or (or ?v_126 ?v_175) P39)) (or (or ?v_80 P39) ?v_95)) (or (or ?v_13 ?v_31) ?v_176)) (or (or ?v_177 ?v_123) ?v_125)) (or (or ?v_64 ?v_57) ?v_147)) (or (or ?v_83 ?v_178) ?v_179)) (or (or ?v_145 ?v_164) ?v_180)) (or (or ?v_181 ?v_44) ?v_141)) (or (or ?v_182 ?v_127) ?v_42)) (or (or ?v_67 P22) ?v_26)) (or (or ?v_82 ?v_6) P21)) (or (or ?v_75 P18) ?v_103)) (or (or ?v_68 ?v_129) P23)) (or (or ?v_88 ?v_138) ?v_13)) (or (or ?v_144 P35) ?v_138)) (or (or ?v_67 ?v_34) ?v_68)) (or (or ?v_177 ?v_33) ?v_5)) (or (or ?v_66 ?v_68) ?v_138)) (or (or ?v_64 ?v_155) ?v_131)) (or (or P17 ?v_123) ?v_176)) (or (or ?v_160 ?v_69) ?v_79)) (or (or ?v_25 ?v_57) ?v_153)) (or (or ?v_5 P5) ?v_46)) (or (or ?v_144 ?v_58) ?v_29)) (or (or ?v_185 ?v_56) ?v_52)) (or (or ?v_84 P7) ?v_92)) (or (or ?v_166 ?v_38) ?v_117)) (or (or P24 P31) P19)) (or (or ?v_69 ?v_190) ?v_80)) (or (or ?v_16 ?v_22) ?v_183)) (or (or ?v_184 ?v_172) ?v_50)) (or (or ?v_179 ?v_185) ?v_148)) (or (or ?v_17 ?v_156) ?v_186)) (or (or ?v_157 ?v_185) ?v_30)) (or (or ?v_43 ?v_52) ?v_73)) (or (or ?v_92 ?v_98) ?v_71)) (or (or P33 P18) ?v_172)) (or (or P4 ?v_12) ?v_100)) (or (or ?v_119 ?v_90) ?v_193)) (or (or ?v_186 ?v_187) ?v_152)) (or (or ?v_188 ?v_17) ?v_68)) (or (or ?v_163 ?v_5) ?v_17)) (or (or ?v_127 ?v_23) ?v_99)) (or (or ?v_20 ?v_181) P31)) (or (or ?v_88 ?v_35) ?v_166)) (or (or ?v_32 P1) P19)) (or (or ?v_28 ?v_103) ?v_46)) (or (or ?v_51 P4) ?v_48)) (or (or P5 ?v_105) ?v_74)) (or (or ?v_109 ?v_9) ?v_189)) (or ?v_198 ?v_95)) (or (or ?v_147 ?v_177) ?v_44)) (or (or P16 ?v_171) ?v_38)) (or (or ?v_151 ?v_178) ?v_118)) (or (or ?v_195 P33) ?v_39)) (or (or ?v_100 P25) ?v_137)) (or (or P13 ?v_72) P7)) (or (or ?v_43 P21) ?v_144)) (or (or ?v_35 ?v_71) ?v_3)) (or (or ?v_26 ?v_20) ?v_38)) (or (or ?v_65 P4) ?v_50)) (or (or ?v_15 ?v_123) ?v_104)) (or (or ?v_194 ?v_99) ?v_9)) (or (or ?v_127 P11) ?v_190)) (or (or ?v_2 ?v_126) ?v_108)) (or (or ?v_82 ?v_46) ?v_158)) (or (or ?v_172 ?v_105) P14)) (or (or ?v_169 ?v_191) ?v_32)) (or (or P38 ?v_182) ?v_123)) (or (or ?v_27 P8) ?v_15)) (or (or ?v_45 ?v_93) ?v_5)) (or (or ?v_54 ?v_192) ?v_67)) (or (or ?v_192 ?v_193) ?v_144)) (or (or P39 ?v_65) ?v_58)) (or (or P12 ?v_80) ?v_85)) (or (or ?v_194 P18) ?v_193)) (or (or P15 ?v_134) ?v_48)) (or (or ?v_92 ?v_155) ?v_42)) (or (or ?v_163 ?v_158) ?v_58)) (or (or ?v_116 ?v_174) ?v_122)) (or (or ?v_65 ?v_121) ?v_70)) (or (or ?v_134 ?v_19) P13)) (or (or ?v_111 ?v_117) P33)) (or (or ?v_89 ?v_107) P0)) (or (or ?v_13 ?v_127) ?v_52)) (or (or ?v_143 ?v_115) ?v_38)) (or (or P24 ?v_176) ?v_193)) (or (or ?v_118 ?v_195) ?v_73)) (or (or ?v_115 ?v_177) ?v_38)) (or (or ?v_196 ?v_34) ?v_146)) (or (or ?v_0 ?v_64) ?v_196)) (or (or P28 ?v_120) ?v_169)) (or (or P2 ?v_172) ?v_69)) (or (or ?v_61 P18) ?v_146)) (or (or ?v_156 ?v_0) P16)) (or (or ?v_179 ?v_75) ?v_167)) (or (or ?v_29 ?v_66) ?v_125)) (or (or ?v_115 ?v_38) ?v_37)) (or (or ?v_167 P21) ?v_104)) (or (or P39 ?v_141) ?v_86)) (or (or P5 ?v_177) ?v_65)) (or (or (not P0) ?v_197) ?v_115)) (or (or ?v_38 ?v_70) P26)) (or ?v_198 P21)) (or (or ?v_98 ?v_139) ?v_148)) (or (or P6 ?v_126) ?v_189)) (or (or ?v_155 ?v_0) ?v_36)) (or (or ?v_149 ?v_5) ?v_161)) (or (or ?v_80 ?v_96) P38)) (or (or ?v_114 P22) ?v_108)) (or (or P32 ?v_85) ?v_99)) (or (or ?v_73 ?v_115) ?v_23)) (or (or ?v_30 ?v_60) ?v_112)) (or (or ?v_98 P6) ?v_23)) (or (or ?v_190 ?v_158) P5)) (or (or ?v_32 ?v_34) P8)) (or (or ?v_161 ?v_176) ?v_190)) (or (or P18 ?v_135) ?v_108)) (or (or ?v_136 ?v_173) P8)) (or (or ?v_12 ?v_43) ?v_120)) (or (or P28 ?v_125) P14)) (or (or P18 P3) ?v_157)) (or (or ?v_74 ?v_172) ?v_24)) (or (or ?v_27 ?v_167) ?v_66)) (or (or ?v_5 P17) ?v_160)) (or (or ?v_65 P22) ?v_56)) (or (or ?v_134 ?v_93) ?v_63)) (or (or ?v_31 ?v_165) ?v_197)) (or (or P29 ?v_189) ?v_170)) (or (or ?v_60 ?v_95) ?v_138)) (or (or ?v_12 P15) P16)) (or (or ?v_29 ?v_0) P11)) (or (or ?v_79 P24) ?v_78)) (or (or ?v_95 ?v_24) ?v_54)) (or (or ?v_161 P7) ?v_190)) (or (or ?v_81 P6) ?v_70)) (or (or ?v_27 ?v_116) ?v_22)) (or (or ?v_114 ?v_140) ?v_92)) (or (or ?v_183 ?v_201) ?v_71)) (or (or P39 ?v_156) ?v_32)) (or (or ?v_116 ?v_72) ?v_35)) (or (or ?v_3 ?v_0) ?v_158)) (or (or ?v_139 P3) ?v_94)) (or (or ?v_117 ?v_69) ?v_48)) (or (or ?v_23 ?v_70) ?v_83)) (or (or ?v_103 ?v_31) ?v_122)) (or (or ?v_158 ?v_175) ?v_27)) (or (or P11 ?v_112) ?v_194)) (or (or ?v_166 ?v_112) ?v_95)) (or (or P11 ?v_126) ?v_113)) (or (or ?v_160 ?v_172) ?v_16)) (or (or ?v_172 ?v_158) ?v_40)) (or (or ?v_32 ?v_52) ?v_78)) (or (or P19 ?v_125) ?v_126)) (or (or ?v_168 ?v_0) ?v_184)) (or (or ?v_180 P6) P9)) (or (or P31 ?v_79) P9)) (or (or ?v_140 ?v_137) ?v_167)) (or (or ?v_95 ?v_114) ?v_161)) (or (or ?v_112 ?v_166) ?v_65)) (or (or ?v_20 ?v_160) ?v_22)) (or (or ?v_79 ?v_29) ?v_199)) (or (or P24 ?v_5) P14)) (or (or ?v_25 ?v_143) ?v_52)) (or (or ?v_69 ?v_167) P39)) (or (or ?v_104 ?v_59) ?v_129)) (or (or ?v_70 ?v_27) ?v_172)) (or (or P39 ?v_200) ?v_172)) (or (or ?v_83 ?v_98) ?v_114)) (or (or ?v_178 ?v_114) P21)) (or (or ?v_114 ?v_113) P35)) (or (or ?v_107 ?v_72) ?v_150)) (or (or ?v_110 ?v_166) ?v_5)) (or (or ?v_13 ?v_46) P7)) (or (or P32 ?v_96) ?v_201)) (or (or ?v_129 ?v_118) ?v_136)) (or (or ?v_135 ?v_115) ?v_85)) (or (or ?v_107 ?v_86) ?v_42)) (or (or ?v_133 ?v_21) ?v_123)) (or (or ?v_147 ?v_22) P35)) (or (or ?v_154 ?v_84) ?v_135)) (or (or ?v_1 ?v_158) ?v_138)) (or (or ?v_51 P37) ?v_89)) (or (or ?v_70 ?v_153) ?v_113)) (or (or ?v_163 ?v_25) ?v_77)) (or (or ?v_24 P18) ?v_100)) (or (or ?v_85 ?v_184) ?v_138)) (or (or ?v_155 ?v_35) ?v_156)) (or (or ?v_69 ?v_189) ?v_188)) (or (or ?v_24 ?v_153) ?v_201)) (or (or ?v_134 ?v_190) ?v_62)) (or (or ?v_75 ?v_174) ?v_33)) (or (or ?v_162 ?v_178) ?v_75)) (or (or ?v_193 ?v_57) P7)) (or (or P8 ?v_116) ?v_187)) (or (or ?v_139 ?v_152) ?v_67)) (or (or P20 P34) ?v_19)) (or (or ?v_200 ?v_61) ?v_108)) (or (or ?v_92 ?v_29) ?v_142)) (or (or ?v_68 P33) ?v_90)) (or (or ?v_174 ?v_135) ?v_32)) (or (or ?v_73 ?v_43) ?v_104)) (or (or ?v_193 P22) ?v_134)) (or (or ?v_36 ?v_11) ?v_115)) (or (or ?v_124 ?v_32) ?v_107)) (or (or ?v_60 ?v_80) ?v_9)) (or (or ?v_184 ?v_123) ?v_169)) (or (or ?v_133 ?v_66) P30)) (or (or ?v_157 ?v_16) P1)) (or (or ?v_176 ?v_129) ?v_74)) (or (or ?v_35 P28) ?v_162)) (or (or ?v_70 ?v_98) P11)) (or (or ?v_33 P2) ?v_47)) (or (or ?v_104 P3) ?v_183)) (or (or ?v_162 ?v_173) ?v_123)) (or (or ?v_128 ?v_120) P36)) (or (or ?v_35 P39) ?v_13)) (or (or ?v_182 ?v_25) ?v_178)) (or (or ?v_36 ?v_115) ?v_20)) (or (or ?v_149 ?v_116) P31)) (or (or ?v_122 ?v_199) ?v_117)) (or (or ?v_168 ?v_66) P19)) (or (or ?v_68 ?v_147) ?v_200)) (or (or P2 ?v_143) ?v_2)) (or (or ?v_31 ?v_49) ?v_127)) (or (or ?v_91 ?v_124) P13)) (or (or ?v_167 ?v_62) ?v_201)) (or (or ?v_174 ?v_31) ?v_165)) (or (or ?v_118 ?v_75) ?v_171)) (or (or P13 ?v_14) ?v_27)) (or (or ?v_81 ?v_116) ?v_24))))))))))))))))))))))))))))))
(check-sat)
(exit)
